[28288, 24206, 23156, 22232, 22176, 20472, 17472, 17472, 17490, 16456, 15300, 16456, 15320, 16220, 15080, 13872, 12368, 12240, 12192, 12192, 10990, 10668, 10668, 10094, 9264, 9144, 9144, 9144, 8300, 7950, 8020, 7620, 7620, 7620, 6320, 6320, 6088, 6088, 6088, 5728, 5728, 5466, 5466, 5466, 5286, 5286, 5286, 5202, 5106, 4650, 4650, 4554, 4446, 4446, 4446, 4410, 4302, 4410, 4302, 4302, 4302, 4140, 4140, 4140, 3504, 3504, 3380, 3244, 4116, 4116, 4116, 4116, 4116, 4116, 4116, 4116, 4116, 4116, 2820, 2820, 2820, 2820, 2820, 2744, 2744, 2744, 2744, 2744, 2744, 2744, 2744, 2744, 2744, 2744, 2744, 2744, 2744, 2744, 2744, 2744, 2744, 2744, 2744, 2744, 2744, 2744, 2744, 2744, 2740, 2740, 2732, 2700, 2700, 2700, 2700, 2700, 2700, 2700, 2700, 2676, 2676, 2676, 2676, 2676, 2676, 2676, 2676, 2676, 2676, 2676, 2676, 2676, 2676, 2664, 2664, 2664, 2664, 2664, 2664, 2664, 2664, 2664, 2664, 2664, 2664, 2664, 2664, 2664, 2664, 2664, 2664, 2664, 2664, 2664, 2664, 2664, 2664, 2664, 2664, 2664, 2664, 2664, 2664, 2664, 2664, 2664, 2664, 2664, 2664, 2664, 2664, 2664, 2664, 2664, 2664, 2664, 2664, 2664, 2664, 2664, 2664, 2664, 2664, 2664, 2664, 2664, 2664, 2664, 2664, 2664, 2664, 2664, 2664, 2664, 2664, 2664, 2664, 2664, 2664, 2664]